  9	58
 22
  0	 23	 55	 81	113	 13	 71	 37	  3	 14	 95	 72	 45	 61	 58	 53	103	111	 12	116	 70	117	
 16
  0	 42	 35	 93	 32	 46	100	 90	 50	104	 16	108	  7	 74	 65	117	
 12
  0	  2	 24	 60	 41	 39	 82	 99	 15	 73	 97	117	
 14
  0	 25	 20	 28	 83	 78	 86	 47	 19	105	 77	 43	101	117	
 16
  0	  8	 57	 66	 51	 49	115	109	 40	107	 52	110	  4	 98	 62	117	
  8
  0	 33	 18	 76	 30	 88	 91	117	
 14
  0	 17	 27	 85	 38	 29	 96	 10	 87	  1	 59	 68	 75	117	
 16
  0	 31	 54	 89	  6	 11	 69	 22	 64	112	 21	 79	 80	 44	102	117	
 16
  0	 36	 26	  9	 56	 94	  5	 63	 67	 34	 48	114	 84	106	 92	117	
